\* Problem: Unknown *\

Maximize
 obj: + xp_0_0 + xp_0_1 + xp_0_2 + xp_0_3 + xp_0_4 + xp_0_5 + xp_1_0
 + xp_1_1 + xp_2_0 + xp_2_1 + xp_2_2 + xp_2_3 + xp_2_4 + xp_3_0 + xp_3_1
 + xp_3_2 + xp_4_0 + xp_4_1 + xp_5_0 + xp_5_1 + xp_5_2 + xp_6_0 + xp_7_0
 + xp_8_0 + xp_8_1 + xp_9_0 + xp_10_0 + xp_10_1 + xp_11_0 + xp_11_1
 + xp_11_2 + xp_11_3 + xp_11_4 + xp_12_0 + xp_13_0 + xp_13_1 + xp_14_0
 + xp_14_1 + xp_15_0 + xp_16_0 + xp_16_1 + xp_17_0 + xp_17_1 + xp_17_2
 + xp_17_3 + xp_17_4 + xp_17_5 + xp_17_6 + xp_17_7 + xp_18_0 + xp_18_1
 + xp_18_2 + xp_18_3 + xp_18_4 + xp_19_0 + xp_19_1 + xp_19_2 + xp_20_0
 + xp_20_1 + xp_20_2 + xp_20_3 + xp_20_4 + xp_21_0 + xp_21_1 + xp_21_2
 + xp_21_3 + xp_21_4 + xp_21_5 + xp_22_0 + xp_22_1 + xp_22_2 + xp_22_3
 + xp_22_4 + xp_22_5 + xp_23_0 + xp_23_1 + xp_23_2 + xp_23_3 + xp_23_4

Subject To
 r_1: 0 xp_0_0 <= 26.0136785539814
 r_2: + xp_22_5 + xp_18_4 + xp_18_2 + xp_5_1 + xp_2_3
 <= 25.6427184466019
 r_3: + xp_23_4 + xp_21_3 + xp_18_3 + xp_17_3 <= 26.5090230242688
 r_4: + xp_17_1 + xp_15_0 <= 26.7924528301887
 r_5: + xp_18_0 <= 25.4697642637513
 r_6: + xp_18_1 <= 26.5090230242688
 r_7: + xp_20_4 <= 26.0136785539814
 r_8: + xp_23_2 + xp_22_2 + xp_11_2 + xp_5_2 + xp_3_2 + xp_2_2
 <= 25.6427184466019
 r_9: + xp_11_1 + xp_3_1 <= 26.5090230242688
 r_10: + xp_17_4 + xp_11_4 + xp_3_0 <= 26.7924528301887
 r_11: + xp_18_1 + xp_11_3 <= 25.4697642637513
 r_12: + xp_11_0 <= 26.5090230242688
 r_13: 0 xp_0_0 <= 27.3778920308483
 r_14: + xp_21_2 + xp_14_0 + xp_0_2 <= 25.6427184466019
 r_15: + xp_21_0 + xp_19_2 <= 26.5090230242688
 r_16: + xp_22_1 + xp_21_4 + xp_0_5 + xp_0_3 + xp_0_1
 <= 26.6425279789335
 r_17: + xp_0_0 <= 25.4697642637513
 r_18: + xp_21_3 + xp_4_0 <= 26.0136785539814
 r_19: + xp_19_0 <= 26.0136785539814
 r_20: + xp_21_5 + xp_21_1 + xp_19_1 + xp_14_1 + xp_4_1 + xp_0_4
 <= 27.3778920308483
 r_21: + xp_20_1 <= 25.6427184466019
 r_22: + xp_21_5 + xp_21_2 + xp_20_2 <= 26.5090230242688
 r_23: + xp_22_5 + xp_22_4 + xp_22_2 + xp_17_5 + xp_3_2
 <= 26.6425279789335
 r_24: + xp_23_3 + xp_23_2 + xp_18_4 + xp_17_6 <= 26.5090230242688
 r_25: 0 xp_0_0 <= 27.3778920308483
 r_26: + xp_18_2 + xp_0_4 + xp_0_2 <= 25.4697642637513
 r_27: + xp_11_2 + xp_4_1 <= 25.6427184466019
 r_28: + xp_10_1 <= 25.6427184466019
 r_29: + xp_20_3 + xp_20_2 <= 26.5090230242688
 r_30: + xp_2_0 <= 26.5090230242688
 r_31: + xp_23_4 + xp_18_3 + xp_17_3 + xp_3_1 + xp_2_4
 <= 26.5090230242688
 r_32: + xp_2_1 <= 27.3778920308483
 r_33: + xp_11_1 + xp_2_3 <= 26.5090230242688
 r_34: + xp_19_2 + xp_2_2 <= 26.5090230242688
 r_35: 0 xp_0_0 <= 26.6425279789335
 r_36: + xp_9_0 <= 26.6425279789335
 r_37: + xp_21_4 + xp_13_1 + xp_8_1 + xp_0_3 <= 26.5090230242688
 r_38: + xp_1_1 <= 28.3056478405316
 r_39: + xp_17_5 + xp_17_2 + xp_3_2 + xp_0_5 <= 26.7924528301887
 r_40: + xp_0_1 <= 25.4697642637513
 r_41: + xp_12_0 + xp_2_4 <= 26.5090230242688
 r_42: + xp_21_4 <= 26.5090230242688
 r_43: + xp_16_0 <= 26.5090230242688
 r_44: + xp_23_4 + xp_23_3 + xp_23_2 + xp_23_1 + xp_16_1
 <= 28.3056478405316
 r_45: + xp_17_6 + xp_17_3 + xp_3_1 <= 26.7924528301887
 r_46: + xp_18_4 + xp_18_3 + xp_0_3 <= 25.4697642637513
 r_47: + xp_22_3 + xp_16_1 + xp_13_1 <= 28.3056478405316
 r_48: + xp_13_0 <= 28.3056478405316
 r_49: + xp_17_7 <= 26.7924528301887
 r_50: 0 xp_0_0 <= 25.4697642637513
 r_51: + xp_8_1 + xp_1_1 <= 26.7924528301887
 r_52: + xp_8_0 <= 26.7924528301887
 r_53: + xp_1_0 <= 26.7924528301887
 r_54: + xp_0_5 <= 25.4697642637513
 r_55: + xp_11_4 <= 26.7924528301887
 r_56: 0 xp_0_0 <= 26.7924528301887
 r_57: + xp_22_1 <= 25.4697642637513
 r_58: + xp_23_3 + xp_22_4 + xp_17_6 + xp_17_5 + xp_5_0
 <= 25.4697642637513
 r_59: + xp_22_0 + xp_17_2 <= 25.4697642637513
 r_60: + xp_23_1 + xp_6_0 <= 25.4697642637513
 r_61: + xp_23_0 + xp_22_3 + xp_17_7 <= 25.4697642637513
 r_62: + xp_17_0 <= 25.4697642637513
 r_63: + xp_23_4 + xp_22_5 + xp_17_3 + xp_17_1 + xp_11_3 + xp_5_1
 <= 25.4697642637513
 r_64: + xp_23_2 + xp_22_2 + xp_17_4 + xp_5_2 <= 25.4697642637513
 r_65: + xp_21_5 + xp_20_2 + xp_20_1 + xp_14_1 + xp_10_1 + xp_4_1
 + xp_2_1 + xp_0_4 <= 27.3778920308483
 r_66: + xp_21_1 + xp_20_3 + xp_7_0 <= 27.3778920308483
 r_67: + xp_20_4 + xp_19_1 + xp_10_0 <= 27.3778920308483
 r_68: + xp_20_0 <= 27.3778920308483

Bounds
 0 <= xp_0_0 <= 26.6666666666667
 0 <= xp_0_1 <= 16.6666666666667
 0 <= xp_0_2 <= 6.66666666666666
 0 <= xp_0_3 <= 3.33333333333333
 0 <= xp_0_4 <= 3.33333333333333
 0 <= xp_0_5 <= 3.33333333333333
 0 <= xp_1_0 <= 18.903875
 0 <= xp_1_1 <= 15.1231
 0 <= xp_2_0 <= 24.1227066666667
 0 <= xp_2_1 <= 3.72802
 0 <= xp_2_2 <= 1.18406
 0 <= xp_2_3 <= 4.12270666666666
 0 <= xp_2_4 <= 0.394686666666667
 0 <= xp_3_0 <= 20
 0 <= xp_3_1 <= 6.66666666666666
 0 <= xp_3_2 <= 3.33333333333333
 0 <= xp_4_0 <= 22.5088
 0 <= xp_4_1 <= 2.8136
 0 <= xp_5_0 <= 16.8816
 0 <= xp_5_1 <= 5.6272
 0 <= xp_5_2 <= 2.8136
 0 <= xp_6_0 <= 22.79016
 0 <= xp_7_0 <= 21.84057
 0 <= xp_8_0 <= 17.44432
 0 <= xp_8_1 <= 2.18054
 0 <= xp_9_0 <= 18.200475
 0 <= xp_10_0 <= 12.13365
 0 <= xp_10_1 <= 6.066825
 0 <= xp_11_0 <= 26.1352133333333
 0 <= xp_11_1 <= 15.8694866666667
 0 <= xp_11_2 <= 6.40094
 0 <= xp_11_3 <= 6.13521333333333
 0 <= xp_11_4 <= 3.06760666666667
 0 <= xp_12_0 <= 17.09262
 0 <= xp_13_0 <= 12.924975
 0 <= xp_13_1 <= 3.69285
 0 <= xp_14_0 <= 14.068
 0 <= xp_14_1 <= 1.7585
 0 <= xp_15_0 <= 15.668235
 0 <= xp_16_0 <= 13.3646
 0 <= xp_16_1 <= 1.670575
 0 <= xp_17_0 <= 28.2219633333333
 0 <= xp_17_1 <= 3.11059333333333
 0 <= xp_17_2 <= 3.11059333333333
 0 <= xp_17_3 <= 3.33333333333333
 0 <= xp_17_4 <= 1.55529666666667
 0 <= xp_17_5 <= 1.55529666666667
 0 <= xp_17_6 <= 1.55529666666667
 0 <= xp_17_7 <= 1.55529666666667
 0 <= xp_18_0 <= 21.3442766666667
 0 <= xp_18_1 <= 12.0437733333333
 0 <= xp_18_2 <= 4.67761
 0 <= xp_18_3 <= 2.68855333333333
 0 <= xp_18_4 <= 1.34427666666667
 0 <= xp_19_0 <= 29.24971
 0 <= xp_19_1 <= 7.74913
 0 <= xp_19_2 <= 4.624855
 0 <= xp_20_0 <= 26.9441233333333
 0 <= xp_20_1 <= 5.74052666666666
 0 <= xp_20_2 <= 1.20359666666667
 0 <= xp_20_3 <= 2.40719333333333
 0 <= xp_20_4 <= 4.53693
 0 <= xp_21_0 <= 24.0406466666667
 0 <= xp_21_1 <= 1.01016166666667
 0 <= xp_21_2 <= 5.35365666666666
 0 <= xp_21_3 <= 4.343495
 0 <= xp_21_4 <= 1.01016166666667
 0 <= xp_21_5 <= 3.33333333333333
 0 <= xp_22_0 <= 23.3372466666667
 0 <= xp_22_1 <= 4.167645
 0 <= xp_22_2 <= 5.00195666666666
 0 <= xp_22_3 <= 0.834311666666666
 0 <= xp_22_4 <= 3.33333333333333
 0 <= xp_22_5 <= 0.834311666666666
 0 <= xp_23_0 <= 26.67058
 0 <= xp_23_1 <= 1.66862333333333
 0 <= xp_23_2 <= 4.167645
 0 <= xp_23_3 <= 1.66862333333333
 0 <= xp_23_4 <= 3.33333333333333

End
